50
    85    13    50    97    11    66     3    96    29     7    81    21    22    62    12     9    87    99    89    82    39    24    70    58     5    88    81    42    31    78    10    32    76    25    14    15    17   100    13    70    45    12    95    64    67    15    12    59     6    99
     7     4     1    10     5     1    10     7     7     5     5    10     8     3     9     8     3     2     1     5     7     4     3     6     4     1     5     9     8     8     7     3     3     2     9    10     2     3     1     5     8     1     1     3     5    10     9     3     3     7
  1069     0     0   766     0   711  1400  1122  1191     0   222   416     0   538  1175   581  1046     0  1296   424  1189   211  1003     0   919     0  1300     0   184  1385    22   970   439  1207   473   764   419   898    50   244   485     0   782  1287   305   288     0  1035  1285    29
